100
32
25
19
17
1
8
7
20
26
32
3
9
12
12
4
10
16
6
11
10
21
2
4
4
21
4
17
1
5
28
4
23
4
2
17
16
4
16
2
19
24
21
2
1
21
1
3
20
5
1
24
1
8
13
19
4
18
18
8
13
2
3
1
1
7
18
5
1
4
9
5
1
1
3
20
2
3
7
5
5
3
20
2
3
23
1
9
5
3
3
7
1
1
19
2
17
5
1
2
11
2